NAME : prob35e
TYPE : PDTSP
DIMENSION : 71
EDGE_WEIGHT_TYPE : EUC_2D
NODE_COORD_SECTION
1 411 649
2 164 942
3 345 164
4 127 31
5 486 555
6 40 127
7 398 734
8 964 874
9 4 732
10 94 899
11 643 274
12 782 692
13 303 311
14 237 685
15 624 384
16 180 906
17 83 844
18 962 89
19 39 217
20 373 398
21 720 933
22 315 369
23 406 439
24 249 467
25 948 217
26 286 886
27 768 601
28 396 126
29 855 798
30 558 273
31 176 150
32 169 240
33 913 207
34 275 795
35 933 419
36 674 805
37 744 452
38 730 607
39 621 926
40 470 693
41 650 506
42 639 651
43 746 227
44 678 382
45 499 848
46 991 494
47 428 403
48 134 473
49 420 301
50 283 731
51 935 946
52 230 325
53 909 472
54 327 492
55 28 484
56 43 726
57 363 561
58 710 192
59 21 290
60 455 360
61 767 149
62 430 896
63 161 962
64 973 743
65 245 881
66 177 586
67 463 47
68 124 436
69 452 592
70 225 182
71 393 577
PICKUP_AND_DELIVERY_SECTION
1 0 0 0 0 0 0
2 0 0 0 0 37 0
3 0 0 0 0 38 0
4 0 0 0 0 39 0
5 0 0 0 0 40 0
6 0 0 0 0 41 0
7 0 0 0 0 42 0
8 0 0 0 0 43 0
9 0 0 0 0 44 0
10 0 0 0 0 45 0
11 0 0 0 0 46 0
12 0 0 0 0 47 0
13 0 0 0 0 48 0
14 0 0 0 0 49 0
15 0 0 0 0 50 0
16 0 0 0 0 51 0
17 0 0 0 0 52 0
18 0 0 0 0 53 0
19 0 0 0 0 54 0
20 0 0 0 0 55 0
21 0 0 0 0 56 0
22 0 0 0 0 57 0
23 0 0 0 0 58 0
24 0 0 0 0 59 0
25 0 0 0 0 60 0
26 0 0 0 0 61 0
27 0 0 0 0 62 0
28 0 0 0 0 63 0
29 0 0 0 0 64 0
30 0 0 0 0 65 0
31 0 0 0 0 66 0
32 0 0 0 0 67 0
33 0 0 0 0 68 0
34 0 0 0 0 69 0
35 0 0 0 0 70 0
36 0 0 0 0 71 0
37 0 0 0 0 0 2
38 0 0 0 0 0 3
39 0 0 0 0 0 4
40 0 0 0 0 0 5
41 0 0 0 0 0 6
42 0 0 0 0 0 7
43 0 0 0 0 0 8
44 0 0 0 0 0 9
45 0 0 0 0 0 10
46 0 0 0 0 0 11
47 0 0 0 0 0 12
48 0 0 0 0 0 13
49 0 0 0 0 0 14
50 0 0 0 0 0 15
51 0 0 0 0 0 16
52 0 0 0 0 0 17
53 0 0 0 0 0 18
54 0 0 0 0 0 19
55 0 0 0 0 0 20
56 0 0 0 0 0 21
57 0 0 0 0 0 22
58 0 0 0 0 0 23
59 0 0 0 0 0 24
60 0 0 0 0 0 25
61 0 0 0 0 0 26
62 0 0 0 0 0 27
63 0 0 0 0 0 28
64 0 0 0 0 0 29
65 0 0 0 0 0 30
66 0 0 0 0 0 31
67 0 0 0 0 0 32
68 0 0 0 0 0 33
69 0 0 0 0 0 34
70 0 0 0 0 0 35
71 0 0 0 0 0 36
DEPOT_SECTION
1 
-1
EOF
